qbf_easy_train/easy_1003_UNSAT.qdimacs
p cnf 42 126
a 1 33 39 0
e 2 3 4 5 6 7 8 9 10 11 12 13 14 15 16 17 18 19 20 21 22 23 24 25 26 27 28 29 30 31 32 34 35 36 37 38 40 41 42 0
4 -2 0
4 3 0
2 -3 -4 0
-5 -1 0
-5 -4 0
1 4 5 0
1 4 -6 0
-1 -4 -6 0
1 -4 6 0
-1 4 6 0
-5 -6 -7 0
5 6 -7 0
-5 6 7 0
5 -6 7 0
8 -3 0
8 -1 0
3 1 -8 0
9 -7 0
9 8 0
7 -8 -9 0
-11 1 0
-11 10 0
-1 -10 11 0
11 5 -12 0
-11 -5 -12 0
11 -5 12 0
-11 5 12 0
13 -3 0
13 4 0
3 -4 -13 0
14 11 0
14 13 0
-11 -13 -14 0
16 15 0
16 -11 0
-15 11 -16 0
17 16 0
17 -3 0
-16 3 -17 0
-18 14 0
-18 -17 0
-14 17 18 0
-4 10 -19 0
4 -10 -19 0
-4 -10 19 0
4 10 19 0
15 -20 -21 0
-15 20 -21 0
15 20 21 0
-15 -20 21 0
22 -20 0
22 21 0
20 -21 -22 0
-23 -19 0
-23 -22 0
19 22 23 0
-24 -18 0
-24 23 0
18 -23 24 0
-12 -24 -25 0
12 24 -25 0
-12 24 25 0
12 -24 25 0
27 -26 0
27 15 0
26 -15 -27 0
-28 20 0
-28 16 0
-20 -16 28 0
29 -11 0
29 3 0
11 -3 -29 0
19 -22 -30 0
-19 22 -30 0
19 22 30 0
-19 -22 30 0
32 -6 0
32 -31 0
6 31 -32 0
33 30 0
33 32 0
-30 -32 -33 0
34 19 0
34 -1 0
-19 1 -34 0
35 31 0
35 4 0
-31 -4 -35 0
-34 35 -36 0
34 -35 -36 0
-34 -35 36 0
34 35 36 0
33 36 -37 0
-33 -36 -37 0
33 -36 37 0
-33 36 37 0
29 37 -38 0
-29 -37 -38 0
29 -37 38 0
-29 37 38 0
28 -38 -39 0
-28 38 -39 0
28 38 39 0
-28 -38 39 0
40 27 0
40 39 0
-27 -39 -40 0
41 -25 0
41 -40 0
25 40 -41 0
-9 -41 -42 0
9 41 -42 0
-9 41 42 0
9 -41 42 0
1 -16 -4 -15 -18 0
14 20 -9 0
37 11 -19 -28 0
31 7 22 -6 0
-21 -30 -23 26 0
-23 42 -31 30 18 0
-5 9 -42 0
33 -36 16 0
-36 25 5 6 -11 -42 -24 -2 0
-40 20 4 5 0
19 -42 9 25 22 0
42 0
