sat_easy_train/easy_1003_UNSAT.dimacs
p cnf 150 510
-2 1 0
-2 -1 0
-2 -1 -3 0
2 1 -3 0
-2 1 3 0
2 -1 3 0
4 -5 -6 0
-4 5 -6 0
4 5 6 0
-4 -5 6 0
-1 -6 -7 0
1 6 -7 0
-1 6 7 0
1 -6 7 0
8 7 0
8 -4 0
-7 4 -8 0
-11 9 0
-11 -10 0
-9 10 11 0
-12 -6 0
-12 11 0
6 -11 12 0
-13 -8 0
-13 -12 0
8 12 13 0
14 -6 0
14 10 0
6 -10 -14 0
-15 -10 0
-15 -5 0
10 5 15 0
17 15 0
17 -16 0
-15 16 -17 0
-20 -18 0
-20 -19 0
18 19 20 0
17 20 -21 0
-17 -20 -21 0
17 -20 21 0
-17 20 21 0
-22 14 0
-22 21 0
-14 -21 22 0
11 -15 -23 0
-11 15 -23 0
11 15 23 0
-11 -15 23 0
24 17 0
24 -23 0
-17 23 -24 0
25 24 0
25 6 0
-24 -6 -25 0
26 22 0
26 25 0
-22 -25 -26 0
7 -8 -27 0
-7 8 -27 0
7 8 27 0
-7 -8 27 0
28 -15 0
28 -6 0
15 6 -28 0
29 -28 0
29 20 0
28 -20 -29 0
-30 -27 0
-30 29 0
27 -29 30 0
31 -26 0
31 -30 0
26 30 -31 0
32 -13 0
32 -31 0
13 31 -32 0
3 32 -33 0
-3 -32 -33 0
3 -32 33 0
-3 32 33 0
-36 -34 0
-36 35 0
34 -35 36 0
14 10 -37 0
-14 -10 -37 0
14 -10 37 0
-14 10 37 0
38 -5 0
38 37 0
5 -37 -38 0
-36 38 -39 0
36 -38 -39 0
-36 -38 39 0
36 38 39 0
33 39 -40 0
-33 -39 -40 0
33 -39 40 0
-33 39 40 0
42 -17 0
42 -41 0
17 41 -42 0
-45 44 0
-45 -15 0
-44 15 45 0
-43 -45 -46 0
43 45 -46 0
-43 45 46 0
43 -45 46 0
-47 37 0
-47 38 0
-37 -38 47 0
-48 46 0
-48 -47 0
-46 47 48 0
49 48 0
49 -12 0
-48 12 -49 0
-50 42 0
-50 49 0
-42 -49 50 0
51 -21 0
51 21 0
52 -16 0
52 11 0
16 -11 -52 0
51 52 -53 0
-51 -52 -53 0
51 -52 53 0
-51 52 53 0
-54 50 0
-54 -53 0
-50 53 54 0
56 55 0
56 -4 0
-55 4 -56 0
20 -10 -57 0
-20 10 -57 0
20 10 57 0
-20 -10 57 0
58 56 0
58 57 0
-56 -57 -58 0
-59 -34 0
-59 -55 0
34 55 59 0
-60 59 0
-60 10 0
-59 -10 60 0
-60 14 -61 0
60 -14 -61 0
-60 -14 61 0
60 14 61 0
-58 -61 -62 0
58 61 -62 0
-58 61 62 0
58 -61 62 0
-64 -36 0
-64 14 0
36 -14 64 0
20 64 -65 0
-20 -64 -65 0
20 -64 65 0
-20 64 65 0
65 66 0
-65 66 0
67 10 0
67 -44 0
-10 44 -67 0
-66 -67 -68 0
66 67 -68 0
-66 67 68 0
66 -67 68 0
-69 -44 0
-69 -68 0
44 68 69 0
-70 -63 0
-70 -69 0
63 69 70 0
-62 -70 -71 0
62 70 -71 0
-62 70 71 0
62 -70 71 0
72 -55 0
72 41 0
55 -41 -72 0
-72 -15 -73 0
72 15 -73 0
-72 15 73 0
72 -15 73 0
74 73 0
74 17 0
-73 -17 -74 0
75 71 0
75 74 0
-71 -74 -75 0
-76 16 0
-76 41 0
-16 -41 76 0
77 -75 0
77 76 0
75 -76 -77 0
-79 -78 0
-79 34 0
78 -34 79 0
80 -2 0
80 21 0
2 -21 -80 0
-81 79 0
-81 80 0
-79 -80 81 0
-28 -56 -82 0
28 56 -82 0
-28 56 82 0
28 -56 82 0
82 7 -83 0
-82 -7 -83 0
82 -7 83 0
-82 7 83 0
-84 81 0
-84 83 0
-81 -83 84 0
-85 -18 0
-85 -10 0
18 10 85 0
86 84 0
86 -85 0
-84 85 -86 0
14 -21 -87 0
-14 21 -87 0
14 21 87 0
-14 -21 87 0
-87 4 -88 0
87 -4 -88 0
-87 -4 88 0
87 4 88 0
89 9 0
89 88 0
-9 -88 -89 0
90 35 0
90 64 0
-35 -64 -90 0
-91 19 0
-91 -44 0
-19 44 91 0
90 91 -92 0
-90 -91 -92 0
90 -91 92 0
-90 91 92 0
-93 64 0
-93 -92 0
-64 92 93 0
89 93 -94 0
-89 -93 -94 0
89 -93 94 0
-89 93 94 0
-95 64 0
-95 92 0
-64 -92 95 0
96 48 0
96 -95 0
-48 95 -96 0
97 -60 0
97 -72 0
60 72 -97 0
96 -97 -98 0
-96 97 -98 0
96 97 98 0
-96 -97 98 0
99 94 0
99 98 0
-94 -98 -99 0
-100 86 0
-100 99 0
-86 -99 100 0
-101 -77 0
-101 100 0
77 -100 101 0
-102 -23 0
-102 -56 0
23 56 102 0
103 101 0
103 102 0
-101 -102 -103 0
-23 1 -104 0
23 -1 -104 0
-23 -1 104 0
23 1 104 0
-105 35 0
-105 20 0
-35 -20 105 0
-106 105 0
-106 -8 0
-105 8 106 0
-43 19 -107 0
43 -19 -107 0
-43 -19 107 0
43 19 107 0
-108 -106 0
-108 -107 0
106 107 108 0
-18 -17 -109 0
18 17 -109 0
-18 17 109 0
18 -17 109 0
110 34 0
110 109 0
-34 -109 -110 0
-19 -36 -111 0
19 36 -111 0
-19 36 111 0
19 -36 111 0
-112 -111 0
-112 -35 0
111 35 112 0
-110 -112 -113 0
110 112 -113 0
-110 112 113 0
110 -112 113 0
-60 -45 -114 0
60 45 -114 0
-60 45 114 0
60 -45 114 0
-115 113 0
-115 114 0
-113 -114 115 0
-108 -115 -116 0
108 115 -116 0
-108 115 116 0
108 -115 116 0
-104 116 -117 0
104 -116 -117 0
-104 -116 117 0
104 116 117 0
103 117 -118 0
-103 -117 -118 0
103 -117 118 0
-103 117 118 0
-119 -54 0
-119 -118 0
54 118 119 0
-120 -40 0
-120 119 0
40 -119 120 0
111 -9 -121 0
-111 9 -121 0
111 9 121 0
-111 -9 121 0
-122 16 0
-122 121 0
-16 -121 122 0
78 -59 -123 0
-78 59 -123 0
78 59 123 0
-78 -59 123 0
124 10 0
124 -6 0
-10 6 -124 0
123 124 -125 0
-123 -124 -125 0
123 -124 125 0
-123 124 125 0
126 -122 0
126 125 0
122 -125 -126 0
14 -35 -127 0
-14 35 -127 0
14 35 127 0
-14 -35 127 0
57 -44 -128 0
-57 44 -128 0
57 44 128 0
-57 -44 128 0
129 92 0
129 128 0
-92 -128 -129 0
-130 15 0
-130 7 0
-15 -7 130 0
-131 129 0
-131 130 0
-129 -130 131 0
-132 -127 0
-132 -131 0
127 131 132 0
126 -132 -133 0
-126 132 -133 0
126 132 133 0
-126 -132 133 0
134 4 0
134 48 0
-4 -48 -134 0
-135 -36 0
-135 2 0
36 -2 135 0
134 -135 -136 0
-134 135 -136 0
134 135 136 0
-134 -135 136 0
137 133 0
137 -136 0
-133 136 -137 0
138 17 0
138 55 0
-17 -55 -138 0
139 7 0
139 138 0
-7 -138 -139 0
-140 91 0
-140 34 0
-91 -34 140 0
-141 7 0
-141 -64 0
-7 64 141 0
142 -140 0
142 -141 0
140 141 -142 0
65 -97 -143 0
-65 97 -143 0
65 97 143 0
-65 -97 143 0
144 142 0
144 -143 0
-142 143 -144 0
145 -139 0
145 144 0
139 -144 -145 0
146 -2 0
146 73 0
2 -73 -146 0
-147 146 0
-147 -21 0
-146 21 147 0
145 147 -148 0
-145 -147 -148 0
145 -147 148 0
-145 147 148 0
149 137 0
149 -148 0
-137 148 -149 0
150 120 0
150 -149 0
-120 149 -150 0
-2 74 147 117 60 -16 0
147 -115 -7 -42 -12 -30 0
115 73 53 36 -89 31 0
131 53 81 12 0
40 90 112 0
49 -147 -41 74 0
-30 99 145 71 0
-59 -104 0
-12 31 -26 -50 0
-108 -88 0
-20 109 -121 1 79 -101 0
-128 75 -121 -43 -144 -78 0
-118 -148 -130 142 0
87 35 -93 118 0
53 66 -82 102 -112 149 0
-82 24 -14 -1 0
-143 -3 0
-104 135 0
-124 -23 0
20 99 0
-112 52 81 0
106 43 -27 -138 0
-85 91 0
88 65 -46 0
-50 -7 -43 0
-150 112 -70 -63 0
14 79 -130 41 0
81 -92 -41 -135 -105 0
-87 40 -86 -144 0
101 121 -150 118 0
125 -114 86 -112 -92 0
124 -70 -45 0
-80 114 0
41 -59 -113 -65 0
-50 125 106 0
61 15 0
-143 -47 -2 0
45 80 90 -42 72 -115 0
-53 148 39 -11 -6 145 0
39 -58 36 -47 87 -66 0
-91 138 0
-148 -19 -130 0
68 2 0
-96 138 -88 -19 -112 133 0
-62 -83 -110 -21 0
110 36 55 -83 -124 48 0
103 -147 -145 0
-82 46 25 -80 0
-18 -89 0
-63 12 0
-13 55 0
21 -106 -57 -10 -93 82 0
-80 100 134 116 0
-71 -133 -136 -95 0
-86 -138 107 0
126 -67 -146 118 -142 69 0
118 142 -22 133 113 0
106 -74 144 0
-37 16 -21 0
41 97 -8 18 -84 0
-98 -96 4 -73 0
-45 -17 90 28 0
-118 -18 101 61 23 4 0
-7 50 -91 79 71 0
-30 -113 63 9 -80 0
10 -58 -80 8 137 0
150 0
